*Heading
 T.inp
*NODE
1, -0.07, 0, 0
2, -0.01, 0, 0
3, 0.01, 0, 0
4, 0.07, 0, 0
5, 0.07, 0.01, 0
6, 0.01, 0.01, 0
7, 0.01, 0.02, 0
8, 0.01, 0.08, 0
9, -0.01, 0.08, 0
10, -0.01, 0.02, 0
11, -0.01, 0.01, 0
12, -0.07, 0.01, 0
13, 0, 0.01, 0
14, -0.055837423005967, 0, 0
15, -0.043680631219484, 0, 0
16, -0.03324555484999, 0, 0
17, -0.024288354079079, 0, 0
18, -0.016599722639102, 0, 0
19, -0.062918711502983, 0, 0
20, -0.04975902711273, 0, 0
21, -0.03846309303475, 0, 0
22, -0.028766954464525, 0, 0
23, -0.020444038359087, 0, 0
24, -0.013299861319549, 0, 0
25, -0.0050000000000108, 0, 0
26, -2.5391147517873e-14, 0, 0
27, 0.0049999999999871, 0, 0
28, -0.0075000000000052, 0, 0
29, -0.0025000000000179, 0, 0
30, 0.002499999999981, 0, 0
31, 0.0074999999999951, 0, 0
32, 0.016599722639078, 0, 0
33, 0.024288354079016, 0, 0
34, 0.033245554849874, 0, 0
35, 0.04368063121934, 0, 0
36, 0.055837423005887, 0, 0
37, 0.013299861319538, 0, 0
38, 0.020444038359047, 0, 0
39, 0.028766954464441, 0, 0
40, 0.038463093034603, 0, 0
41, 0.049759027112612, 0, 0
42, 0.06291871150295, 0, 0
43, 0.07, 0.0049999999999897, 0
44, 0.056830532981799, 0.01, 0
45, 0.045901265592889, 0.01, 0
46, 0.036831126396582, 0.01, 0
47, 0.02930387004771, 0.01, 0
48, 0.023057042936752, 0.01, 0
49, 0.017872836334521, 0.01, 0
50, 0.013570491458011, 0.01, 0
51, 0.063415266490901, 0.01, 0
52, 0.051365899287346, 0.01, 0
53, 0.041366195994739, 0.01, 0
54, 0.033067498222144, 0.01, 0
55, 0.026180456492231, 0.01, 0
56, 0.020464939635639, 0.01, 0
57, 0.015721663896265, 0.01, 0
58, 0.011785245729006, 0.01, 0
59, 0.01, 0.012718177226929, 0
60, 0.01, 0.016011013466709, 0
61, 0.01, 0.011359088613465, 0
62, 0.01, 0.014364595346817, 0
63, 0.01, 0.018005506733353, 0
64, 0.01, 0.026599722639078, 0
65, 0.01, 0.034288354079015, 0
66, 0.01, 0.043245554849874, 0
67, 0.01, 0.05368063121934, 0
68, 0.01, 0.065837423005887, 0
69, 0.01, 0.023299861319539, 0
70, 0.01, 0.030444038359048, 0
71, 0.01, 0.038766954464447, 0
72, 0.01, 0.048463093034597, 0
73, 0.01, 0.059759027112619, 0
74, 0.01, 0.072918711502945, 0
75, 2.5403290582204e-14, 0.08, 0
76, 0.0050000000000082, 0.08, 0
77, -0.0049999999999883, 0.08, 0
78, -0.01, 0.065837423005966, 0
79, -0.01, 0.053680631219483, 0
80, -0.01, 0.04324555484999, 0
81, -0.01, 0.034288354079079, 0
82, -0.01, 0.026599722639102, 0
83, -0.01, 0.072918711502966, 0
84, -0.01, 0.059759027112722, 0
85, -0.01, 0.04846309303475, 0
86, -0.01, 0.038766954464543, 0
87, -0.01, 0.030444038359094, 0
88, -0.01, 0.023299861319548, 0
89, -0.01, 0.016011013466731, 0
90, -0.01, 0.012718177226942, 0
91, -0.01, 0.018005506733363, 0
92, -0.01, 0.014364595346837, 0
93, -0.01, 0.011359088613471, 0
94, -0.013570491457999, 0.01, 0
95, -0.017872836334495, 0.01, 0
96, -0.023057042936699, 0.01, 0
97, -0.029303870047619, 0.01, 0
98, -0.036831126396441, 0.01, 0
99, -0.04590126559275, 0.01, 0
100, -0.056830532981719, 0.01, 0
101, -0.011785245729, 0.01, 0
102, -0.015721663896247, 0.01, 0
103, -0.020464939635597, 0.01, 0
104, -0.026180456492158, 0.01, 0
105, -0.033067498222028, 0.01, 0
106, -0.041366195994589, 0.01, 0
107, -0.051365899287237, 0.01, 0
108, -0.063415266490859, 0.01, 0
109, -0.07, 0.0050000000000084, 0
110, 0.0024599875814909, 0.0052216780060343, 0
111, 0.0071181839522287, 0.0072123374363351, 0
112, 0.0056602284991665, 0.011115186039101, 0
113, 0.0070540698975624, 0.0037039718560274, 0
114, -0.0057344268236164, 0.011123351953518, 0
115, -0.0071784304276714, 0.0071675079574788, 0
116, -0.0032133969270072, 0.0053086272177915, 0
117, -0.0070409088511504, 0.0036478524932496, 0
118, 6.9032732543865e-08, 0.071916838694041, 0
119, 0.014757057570932, 0.0052087982676455, 0
120, 0.010416633782924, 0.0060208512805134, 0
121, -0.010424705633126, 0.0060035457529724, 0
122, -0.014758402903065, 0.0052059139971639, 0
123, 0.0027093209703725, 0.016332367345573, 0
124, 0.0073341071145876, 0.016321742173722, 0
125, 0.0056350932179869, 0.021753708964022, 0
126, -0.0072903706586226, 0.016325424442917, 0
127, 8.528712509274e-05, 0.022459839805459, 0
128, -0.0036301701332156, 0.028808948608693, 0
129, 0.0036818441959287, 0.028808581753249, 0
130, 8.5514168690452e-07, 0.038940916302508, 0
131, -0.0055490072620017, 0.021756277072761, 0
132, -0.0024587897520136, 0.016343726829496, 0
133, -4.411916795441e-15, 0.048578417396569, 0
134, 4.141963698599e-07, 0.059826186152392, 0
135, 0.020082661353666, 0.0052319382300108, 0
136, -0.020082661353668, 0.0052319382300108, 0
137, 0.0047890857668598, 0.0062170077211847, 0
138, 0.0063892062256976, 0.0091637617377179, 0
139, 0.0040601080403287, 0.0081684320225675, 0
140, 0.031274712448792, 0.005, 0
141, 0.035038340623228, 0.005, 0
142, 0.040255878807961, 0.005, 0
143, 0.050869344299388, 0.005, 0
144, 0.044790948406115, 0.005, 0
145, 0.0047570287395267, 0.0044628249310309, 0
146, 0.0070861269248955, 0.0054581546461813, 0
147, -0.0064564286256439, 0.0091454299554983, 0
148, -0.0051959136773393, 0.0062380675876351, 0
149, -0.0044739118753118, 0.0082159895856547, 0
150, -0.0071096696394109, 0.0054076802253642, 0
151, -0.0051271528890788, 0.0044782398555205, 0
152, -0.063415266490859, 0.005, 0
153, -0.0049999654836337, 0.07595841934702, 0
154, -0.0049999654836337, 0.068877130850004, 0
155, -0.056333977993843, 0.005, 0
156, -0.050869344299359, 0.005, 0
157, 3.4516378973578e-08, 0.07595841934702, 0
158, -0.044790948406117, 0.005, 0
159, -0.040255878807963, 0.005, 0
160, 0.063415266490899, 0.005, 0
161, -0.035038340623216, 0.005, 0
162, -0.031274712448805, 0.005, 0
163, 0.056333977993843, 0.005, 0
164, -0.026796112063349, 0.005, 0
165, -0.023672698507889, 0.005, 0
166, 0.0012299937907328, 0.0026108390030172, 0
167, -0.00037670467275814, 0.0052651526119129, 0
168, -0.0016066984635163, 0.0026543136088957, 0
169, 0.014163774514472, 0.0076043991338227, 0
170, 0.011993562620467, 0.0080104256402567, 0
171, 0.012586845676928, 0.0056148247740794, 0
172, 0.023672698507884, 0.005, 0
173, 0.026796112063363, 0.005, 0
174, 0.0012299937907455, 0.0076108390030172, 0
175, -0.0016066984635036, 0.0076543136088957, 0
176, -0.011997598545563, 0.0080017728764862, 0
177, -0.014164447180532, 0.0076029569985819, 0
178, -0.012591554268096, 0.0056047298750681, 0
179, 0.003729993790739, 0.0026108390030172, 0
180, 0.0060270349487748, 0.0018519859280137, 0
181, -0.004106698463509, 0.0026543136088957, 0
182, -0.0060204544255806, 0.0018239262466248, 0
183, 0.010208316891462, 0.0030104256402567, 0
184, 0.012378528785466, 0.0026043991338227, 0
185, 0.015678390105005, 0.0026043991338227, 0
186, -0.010212352816563, 0.0030017728764862, 0
187, -0.012379201451533, 0.0026029569985819, 0
188, -0.015679062771084, 0.0026029569985819, 0
189, 0.0050217140424801, 0.016327054759647, 0
190, 0.0064846001662873, 0.019037725568872, 0
191, 0.0041722070941797, 0.019043038154797, 0
192, -0.0086451853293113, 0.016168218954824, 0
193, -0.0086451853293113, 0.014521800834929, 0
194, 0.0013973040477326, 0.019396103575516, 0
195, 0.0028601901715398, 0.022106774384741, 0
196, 0.0086670535572938, 0.016166377820216, 0
197, 0.0086670535572938, 0.014519959700326, 0
198, 0.0086670535572938, 0.018160871086861, 0
199, 0.0078175466089934, 0.020876854482011, 0
200, 2.5837031356568e-05, 0.028808765180971, 0
201, 0.0018413496688078, 0.033874749027879, 0
202, -0.0018146574957643, 0.033874932455601, 0
203, -0.0068150850666078, 0.031548651343886, 0
204, -0.0049995724291565, 0.036614635190793, 0
205, 0.0068409220979643, 0.031548467916132, 0
206, 0.0050004275708435, 0.036614635190762, 0
207, -0.0064196889603121, 0.019040850757839, 0
208, -0.0048745802053181, 0.016334575636206, 0
209, -0.0040038985070076, 0.019050001951129, 0
210, -0.0011867513134604, 0.019401783317478, 0
211, -0.0027318600684545, 0.02210805843911, 0
212, -0.0077745036310008, 0.020878138536381, 0
213, -0.0086451853293113, 0.018162712221458, 0
214, 0.0046584687069578, 0.025281145358636, 0
215, 0.0018835656605107, 0.025634210779354, 0
216, -0.0045895886976086, 0.025282612840727, 0
217, -0.0017724415040614, 0.025634394207076, 0
218, -0.0068150850666078, 0.027704335623898, 0
219, -0.0077745036310008, 0.024177999855932, 0
220, 0.0028301142495832, 0.01055759301955, 0
221, 0.0078301142495832, 0.01055759301955, 0
222, 0.0085590919761143, 0.0086061687181676, 0
223, -0.010212352816563, 0.0080017728764862, 0
224, -0.0088015680303987, 0.0065855268552256, 0
225, -0.0085892152138357, 0.0085837539787394, 0
226, -0.0087328072421382, 0.004825699123111, 0
227, -0.0050000000000022, 0.051129524308026, 0
228, -0.0050000000000022, 0.045911986123279, 0
229, 0.0087674088675761, 0.0066165943584243, 0
230, 0.010208316891462, 0.0080104256402567, 0
231, 0.0078175466089934, 0.02417671580155, 0
232, 0.0068409220979643, 0.027704152196164, 0
233, 0.008735351840243, 0.0048624115682704, 0
234, -0.0028672134118082, 0.010561675976759, 0
235, -0.0078672134118082, 0.010561675976759, 0
236, -0.0049997929018151, 0.062831804579179, 0
237, 2.4161455120188e-07, 0.065871512423216, 0
238, 0.0085270349487812, 0.0018519859280137, 0
239, 0.0050002070981849, 0.062831804579139, 0
240, 0.0050000345163663, 0.068877130849964, 0
241, 0.0041847747347695, 0.013723776692337, 0
242, 0.0064971678068771, 0.013718464106411, 0
243, -0.0085204544255752, 0.0018239262466248, 0
244, 0.0078301142495832, 0.011916681633015, 0
245, 0.0013546604851863, 0.013166183672786, 0
246, -0.0078672134118082, 0.01192076459023, 0
247, -0.004096608287815, 0.013733539391507, 0
248, -0.0065123987411195, 0.013724388198217, 0
249, -0.0012293948760068, 0.013171863414748, 0
250, 0.00012526560917946, 0.016338047087534, 0
251, -0.0049995724291565, 0.041093235576249, 0
252, 0.0050004275708435, 0.041093235576191, 0
253, 2.0709818272399e-07, 0.05420230177448, 0
254, -0.0049997929018151, 0.056753408685938, 0
255, 0.0050002070981849, 0.056753408685866, 0
256, 0.0049999999999978, 0.051129524307954, 0
257, 4.275708412463e-07, 0.043759666849539, 0
258, 0.0049999999999978, 0.045911986123221, 0
259, 0.016314946952727, 0.0076043991338227, 0
260, 0.017419859462299, 0.0052203682488281, 0
261, 0.018977748844094, 0.0076159691150054, 0
262, 0.018341191996372, 0.0026159691150054, 0
263, -0.017420532128366, 0.0052189261135873, 0
264, -0.01631561961878, 0.0076029569985819, 0
265, -0.018977748844082, 0.0076159691150054, 0
266, -0.018341191996385, 0.0026159691150054, 0
267, -0.021569852145183, 0.0076159691150054, 0
268, -0.022185507716373, 0.0026159691150054, 0
269, 0.0050000345163663, 0.07595841934702, 0
270, 0.022185507716341, 0.0026159691150054, 0
271, 0.021569852145209, 0.0076159691150054, 0
******* E L E M E N T S *************
*ELEMENT, type=T3D3, ELSET=Line1
14, 1, 19, 14
15, 14, 20, 15
16, 15, 21, 16
17, 16, 22, 17
18, 17, 23, 18
19, 18, 24, 2
*ELEMENT, type=T3D3, ELSET=Line2
20, 2, 28, 25
21, 25, 29, 26
22, 26, 30, 27
23, 27, 31, 3
*ELEMENT, type=T3D3, ELSET=Line3
24, 3, 37, 32
25, 32, 38, 33
26, 33, 39, 34
27, 34, 40, 35
28, 35, 41, 36
29, 36, 42, 4
*ELEMENT, type=T3D3, ELSET=Line4
30, 4, 43, 5
*ELEMENT, type=T3D3, ELSET=Line5
31, 5, 51, 44
32, 44, 52, 45
33, 45, 53, 46
34, 46, 54, 47
35, 47, 55, 48
36, 48, 56, 49
37, 49, 57, 50
38, 50, 58, 6
*ELEMENT, type=T3D3, ELSET=Line6
39, 6, 61, 59
40, 59, 62, 60
41, 60, 63, 7
*ELEMENT, type=T3D3, ELSET=Line7
42, 7, 69, 64
43, 64, 70, 65
44, 65, 71, 66
45, 66, 72, 67
46, 67, 73, 68
47, 68, 74, 8
*ELEMENT, type=T3D3, ELSET=Line8
48, 8, 76, 75
49, 75, 77, 9
*ELEMENT, type=T3D3, ELSET=Line9
50, 9, 83, 78
51, 78, 84, 79
52, 79, 85, 80
53, 80, 86, 81
54, 81, 87, 82
55, 82, 88, 10
*ELEMENT, type=T3D3, ELSET=Line10
56, 10, 91, 89
57, 89, 92, 90
58, 90, 93, 11
*ELEMENT, type=T3D3, ELSET=Line11
59, 11, 101, 94
60, 94, 102, 95
61, 95, 103, 96
62, 96, 104, 97
63, 97, 105, 98
64, 98, 106, 99
65, 99, 107, 100
66, 100, 108, 12
*ELEMENT, type=T3D3, ELSET=Line12
67, 12, 109, 1
*ELEMENT, type=CPS6, ELSET=Surface1
68, 110, 111, 112, 137, 138, 139
69, 47, 34, 46, 140, 141, 54
70, 34, 35, 46, 40, 142, 141
71, 35, 36, 45, 41, 143, 144
72, 110, 113, 111, 145, 146, 137
73, 114, 115, 116, 147, 148, 149
74, 115, 117, 116, 150, 151, 148
75, 100, 12, 1, 108, 109, 152
76, 118, 9, 78, 153, 83, 154
77, 99, 100, 14, 107, 155, 156
78, 75, 9, 118, 77, 153, 157
79, 98, 99, 15, 106, 158, 159
80, 4, 5, 44, 43, 51, 160
81, 97, 98, 16, 105, 161, 162
82, 36, 4, 44, 42, 160, 163
83, 96, 97, 17, 104, 164, 165
84, 26, 110, 116, 166, 167, 168
85, 119, 50, 120, 169, 170, 171
86, 35, 45, 46, 144, 53, 142
87, 47, 48, 33, 55, 172, 173
88, 47, 33, 34, 173, 39, 140
89, 110, 13, 116, 174, 175, 167
90, 121, 94, 122, 176, 177, 178
91, 110, 26, 27, 166, 30, 179
92, 27, 113, 110, 180, 145, 179
93, 14, 100, 1, 155, 152, 19
94, 15, 99, 14, 158, 156, 20
95, 25, 26, 116, 29, 168, 181
96, 116, 117, 25, 151, 182, 181
97, 119, 120, 3, 171, 183, 184
98, 3, 32, 119, 37, 185, 184
99, 2, 121, 122, 186, 178, 187
100, 16, 98, 15, 161, 159, 21
101, 122, 18, 2, 188, 24, 187
102, 17, 97, 16, 164, 162, 22
103, 123, 124, 125, 189, 190, 191
104, 126, 89, 90, 192, 92, 193
105, 127, 123, 125, 194, 191, 195
106, 59, 60, 124, 62, 196, 197
107, 124, 7, 125, 198, 199, 190
108, 128, 129, 130, 200, 201, 202
109, 81, 128, 130, 203, 202, 204
110, 129, 65, 130, 205, 206, 201
111, 131, 126, 132, 207, 208, 209
112, 36, 44, 45, 163, 52, 143
113, 131, 132, 127, 209, 210, 211
114, 131, 10, 126, 212, 213, 207
115, 127, 125, 129, 195, 214, 215
116, 128, 131, 127, 216, 211, 217
117, 128, 82, 131, 218, 219, 216
118, 110, 112, 13, 139, 220, 174
119, 6, 112, 111, 221, 138, 222
120, 11, 121, 115, 223, 224, 225
121, 129, 128, 127, 200, 217, 215
122, 115, 121, 117, 224, 226, 150
123, 133, 79, 80, 227, 85, 228
124, 111, 120, 6, 229, 230, 222
125, 125, 64, 129, 231, 232, 214
126, 113, 120, 111, 233, 229, 146
127, 13, 114, 116, 234, 149, 175
128, 115, 114, 11, 147, 235, 225
129, 10, 89, 126, 91, 192, 213
130, 78, 134, 118, 236, 237, 154
131, 124, 60, 7, 196, 63, 198
132, 27, 3, 113, 31, 238, 180
133, 118, 134, 68, 237, 239, 240
134, 124, 123, 112, 189, 241, 242
135, 117, 2, 25, 243, 28, 182
136, 59, 124, 112, 197, 242, 244
137, 13, 112, 123, 220, 241, 245
138, 90, 11, 114, 93, 235, 246
139, 129, 64, 65, 232, 70, 205
140, 131, 82, 10, 219, 88, 212
141, 114, 132, 126, 247, 208, 248
142, 114, 126, 90, 248, 193, 246
143, 132, 114, 13, 247, 234, 249
144, 128, 81, 82, 203, 87, 218
145, 127, 132, 123, 210, 250, 194
146, 125, 7, 64, 199, 69, 231
147, 123, 132, 13, 250, 249, 245
148, 130, 80, 81, 251, 86, 204
149, 130, 65, 66, 206, 71, 252
150, 133, 134, 79, 253, 254, 227
151, 67, 134, 133, 255, 253, 256
152, 130, 133, 80, 257, 228, 251
153, 66, 133, 130, 258, 257, 252
154, 49, 119, 135, 259, 260, 261
155, 135, 119, 32, 260, 185, 262
156, 136, 122, 95, 263, 264, 265
157, 18, 122, 136, 188, 263, 266
158, 134, 67, 68, 255, 73, 239
159, 134, 78, 79, 236, 84, 254
160, 94, 95, 122, 102, 264, 177
161, 119, 49, 50, 259, 57, 169
162, 136, 96, 17, 267, 165, 268
163, 95, 96, 136, 103, 267, 265
164, 17, 18, 136, 23, 266, 268
165, 68, 8, 118, 74, 269, 240
166, 118, 8, 75, 269, 76, 157
167, 135, 32, 33, 262, 38, 270
168, 120, 113, 3, 233, 238, 183
169, 120, 50, 6, 170, 58, 230
170, 135, 48, 49, 271, 56, 261
171, 33, 48, 135, 172, 271, 270
172, 112, 6, 59, 221, 61, 244
173, 2, 117, 121, 243, 226, 186
174, 11, 94, 121, 101, 176, 223
175, 133, 66, 67, 258, 72, 256
